Geographic Exponential Decay
20 11 216 55 209 102 26 118 75 68 229 86 144 247 314 97 223 232 136 287 311
p edge 320 642
e 0 296 1.0
e 0 214 2.0
e 1 124 5.0
e 1 276 3.0
e 2 308 11.0
e 2 50 2.0
e 2 62 6.0
e 3 217 5.0
e 4 91 14.0
e 4 251 44.0
e 4 247 8.0
e 4 241 23.0
e 4 217 41.0
e 4 293 18.0
e 4 194 5.0
e 4 112 6.0
e 4 59 35.0
e 5 56 5.0
e 5 121 1.0
e 6 122 20.0
e 6 311 50.0
e 6 306 9.0
e 6 138 14.0
e 6 282 4.0
e 7 83 2.0
e 7 142 6.0
e 7 23 8.0
e 8 265 1.0
e 9 94 3.0
e 10 177 3.0
e 11 234 86.0
e 11 273 43.0
e 11 298 94.0
e 11 68 74.0
e 11 257 92.0
e 11 210 63.0
e 11 223 28.0
e 11 238 77.0
e 11 241 75.0
e 11 30 73.0
e 11 308 24.0
e 11 281 26.0
e 11 265 22.0
e 11 85 87.0
e 11 31 75.0
e 11 183 7.0
e 11 224 11.0
e 12 249 41.0
e 13 71 1.0
e 14 254 3.0
e 15 139 8.0
e 16 285 24.0
e 17 92 2.0
e 18 233 6.0
e 18 150 8.0
e 18 43 6.0
e 19 97 17.0
e 20 252 1.0
e 21 29 4.0
e 21 131 6.0
e 22 108 2.0
e 24 243 4.0
e 25 274 4.0
e 26 299 76.0
e 26 316 100.0
e 26 260 66.0
e 26 272 56.0
e 26 82 9.0
e 26 35 86.0
e 26 293 54.0
e 26 107 24.0
e 26 208 18.0
e 26 127 88.0
e 26 136 52.0
e 26 289 53.0
e 26 255 8.0
e 26 88 53.0
e 26 98 9.0
e 26 244 55.0
e 26 33 87.0
e 27 263 1.0
e 27 147 8.0
e 27 144 55.0
e 28 121 1.0
e 29 257 1.0
e 32 126 6.0
e 32 141 2.0
e 33 218 14.0
e 34 79 1.0
e 35 0 4.0
e 36 191 1.0
e 37 188 2.0
e 37 124 1.0
e 38 219 1.0
e 38 301 5.0
e 39 91 3.0
e 40 153 9.0
e 41 88 8.0
e 42 43 9.0
e 43 239 7.0
e 43 44 23.0
e 43 121 15.0
e 45 252 10.0
e 45 254 4.0
e 45 206 6.0
e 46 306 1.0
e 47 93 1.0
e 48 38 3.0
e 48 12 3.0
e 49 39 1.0
e 50 53 4.0
e 51 56 3.0
e 52 106 3.0
e 52 263 3.0
e 54 305 3.0
e 54 231 5.0
e 54 263 6.0
e 55 84 39.0
e 55 256 76.0
e 55 182 94.0
e 55 223 90.0
e 55 86 34.0
e 55 289 60.0
e 55 139 84.0
e 55 244 100.0
e 55 32 58.0
e 55 77 80.0
e 55 9 44.0
e 55 269 35.0
e 55 101 26.0
e 55 91 30.0
e 55 253 100.0
e 55 18 11.0
e 55 81 60.0
e 56 60 5.0
e 57 258 1.0
e 58 125 5.0
e 59 261 5.0
e 61 154 10.0
e 61 78 1.0
e 61 242 2.0
e 63 158 23.0
e 63 66 2.0
e 63 138 1.0
e 63 12 17.0
e 63 27 1.0
e 64 282 3.0
e 64 308 1.0
e 65 193 1.0
e 65 107 4.0
e 67 135 1.0
e 68 139 12.0
e 68 242 32.0
e 68 88 92.0
e 68 65 24.0
e 68 101 74.0
e 68 307 19.0
e 68 122 29.0
e 68 102 89.0
e 68 32 90.0
e 68 154 55.0
e 68 15 69.0
e 68 188 58.0
e 68 140 81.0
e 68 58 1.0
e 68 109 14.0
e 68 99 43.0
e 69 169 49.0
e 70 278 1.0
e 72 226 5.0
e 72 240 11.0
e 73 260 2.0
e 73 227 16.0
e 73 265 4.0
e 73 126 8.0
e 73 67 22.0
e 74 236 1.0
e 74 44 3.0
e 75 76 22.0
e 75 77 57.0
e 75 247 1.0
e 75 302 50.0
e 75 311 10.0
e 75 109 21.0
e 75 243 39.0
e 75 121 55.0
e 75 178 48.0
e 75 60 58.0
e 75 313 56.0
e 75 301 75.0
e 75 143 90.0
e 75 220 67.0
e 75 64 41.0
e 75 71 60.0
e 75 106 24.0
e 80 231 4.0
e 80 216 35.0
e 86 303 80.0
e 86 159 23.0
e 86 316 80.0
e 86 207 3.0
e 86 85 76.0
e 86 259 80.0
e 86 205 1.0
e 86 302 19.0
e 86 309 15.0
e 86 1 93.0
e 86 140 93.0
e 86 27 97.0
e 86 17 86.0
e 86 52 69.0
e 86 222 21.0
e 86 296 52.0
e 87 157 1.0
e 89 253 2.0
e 90 117 1.0
e 90 0 6.0
e 94 24 5.0
e 95 288 1.0
e 96 269 1.0
e 97 60 38.0
e 97 226 59.0
e 97 279 65.0
e 97 277 13.0
e 97 208 74.0
e 97 30 67.0
e 97 146 54.0
e 97 170 37.0
e 97 213 53.0
e 97 62 40.0
e 97 112 17.0
e 97 179 2.0
e 97 57 55.0
e 97 255 90.0
e 97 174 69.0
e 97 110 65.0
e 99 182 1.0
e 100 153 7.0
e 100 134 4.0
e 100 194 7.0
e 102 281 27.0
e 102 82 34.0
e 102 252 45.0
e 102 169 56.0
e 102 62 80.0
e 102 165 43.0
e 102 44 12.0
e 102 248 2.0
e 102 181 56.0
e 102 83 37.0
e 102 129 72.0
e 102 56 96.0
e 102 271 96.0
e 102 172 87.0
e 102 189 38.0
e 102 94 28.0
e 103 220 35.0
e 103 214 22.0
e 103 176 39.0
e 103 9 39.0
e 103 27 22.0
e 103 104 19.0
e 103 139 14.0
e 103 301 38.0
e 103 92 2.0
e 104 299 1.0
e 105 58 1.0
e 105 210 3.0
e 106 145 7.0
e 106 10 23.0
e 106 81 11.0
e 111 185 9.0
e 113 30 2.0
e 114 159 1.0
e 115 290 1.0
e 116 67 2.0
e 118 63 8.0
e 118 293 57.0
e 118 160 97.0
e 118 257 45.0
e 118 26 18.0
e 118 302 76.0
e 118 35 25.0
e 118 13 44.0
e 118 107 48.0
e 118 163 40.0
e 118 28 64.0
e 118 300 17.0
e 118 55 88.0
e 118 25 21.0
e 118 9 87.0
e 118 70 15.0
e 118 36 72.0
e 119 60 3.0
e 119 1 6.0
e 119 94 3.0
e 119 249 12.0
e 119 97 78.0
e 120 182 17.0
e 120 56 4.0
e 120 256 22.0
e 120 141 14.0
e 120 41 10.0
e 123 72 3.0
e 123 167 10.0
e 124 317 3.0
e 125 51 8.0
e 125 176 10.0
e 127 56 5.0
e 128 241 12.0
e 128 8 10.0
e 128 250 12.0
e 129 74 1.0
e 130 23 1.0
e 132 318 2.0
e 132 273 6.0
e 133 296 6.0
e 133 318 10.0
e 133 58 3.0
e 134 154 4.0
e 136 123 47.0
e 136 279 76.0
e 136 178 88.0
e 136 84 85.0
e 136 271 23.0
e 136 169 14.0
e 136 83 31.0
e 136 216 8.0
e 136 222 42.0
e 136 13 87.0
e 136 308 7.0
e 136 133 13.0
e 136 171 82.0
e 136 303 70.0
e 136 291 14.0
e 136 272 68.0
e 137 14 2.0
e 137 270 14.0
e 137 127 10.0
e 140 80 4.0
e 140 174 22.0
e 140 237 10.0
e 144 23 10.0
e 144 185 60.0
e 144 39 84.0
e 144 167 92.0
e 144 112 5.0
e 144 73 26.0
e 144 274 38.0
e 144 46 53.0
e 144 113 66.0
e 144 48 96.0
e 144 31 65.0
e 144 188 80.0
e 144 172 82.0
e 144 163 43.0
e 144 148 9.0
e 144 285 57.0
e 145 204 6.0
e 145 57 6.0
e 146 311 34.0
e 149 64 8.0
e 149 200 8.0
e 149 42 1.0
e 151 121 2.0
e 151 40 6.0
e 152 50 3.0
e 153 282 6.0
e 155 4 33.0
e 156 149 2.0
e 156 131 2.0
e 157 220 2.0
e 160 239 12.0
e 160 162 22.0
e 160 289 4.0
e 160 92 24.0
e 161 285 12.0
e 161 26 92.0
e 162 208 2.0
e 164 316 1.0
e 164 238 4.0
e 166 97 55.0
e 166 73 25.0
e 166 44 4.0
e 167 64 1.0
e 168 156 1.0
e 169 173 2.0
e 169 37 6.0
e 169 208 17.0
e 169 114 37.0
e 169 141 5.0
e 169 239 3.0
e 170 134 6.0
e 170 86 71.0
e 173 284 20.0
e 173 283 20.0
e 173 251 7.0
e 173 120 4.0
e 175 252 6.0
e 177 59 3.0
e 180 100 10.0
e 180 21 4.0
e 183 115 5.0
e 183 224 1.0
e 184 285 8.0
e 185 164 9.0
e 186 149 1.0
e 187 105 4.0
e 189 45 11.0
e 190 163 3.0
e 192 80 24.0
e 192 196 18.0
e 192 17 13.0
e 192 277 2.0
e 192 225 2.0
e 195 154 1.0
e 197 216 5.0
e 197 258 22.0
e 197 207 11.0
e 197 165 14.0
e 197 310 4.0
e 198 110 1.0
e 199 62 1.0
e 200 281 12.0
e 200 226 8.0
e 201 234 10.0
e 201 300 7.0
e 201 288 1.0
e 202 21 16.0
e 202 237 10.0
e 202 221 14.0
e 202 240 11.0
e 202 315 2.0
e 203 168 3.0
e 204 157 4.0
e 209 46 84.0
e 209 173 86.0
e 209 118 10.0
e 209 235 35.0
e 209 172 44.0
e 209 94 20.0
e 209 84 83.0
e 209 234 94.0
e 209 28 61.0
e 209 251 14.0
e 209 115 74.0
e 209 114 98.0
e 209 179 44.0
e 209 211 23.0
e 209 271 93.0
e 209 185 37.0
e 209 40 39.0
e 212 149 1.0
e 215 306 1.0
e 216 39 13.0
e 216 37 48.0
e 216 103 73.0
e 216 69 33.0
e 216 61 51.0
e 216 187 30.0
e 216 244 57.0
e 216 301 23.0
e 216 157 23.0
e 216 215 40.0
e 216 70 5.0
e 216 236 81.0
e 216 55 41.0
e 216 176 54.0
e 218 223 62.0
e 218 169 3.0
e 218 52 22.0
e 218 57 23.0
e 223 187 72.0
e 223 192 56.0
e 223 24 72.0
e 223 231 35.0
e 223 185 7.0
e 223 106 19.0
e 223 40 85.0
e 223 236 59.0
e 223 259 85.0
e 223 276 80.0
e 223 34 73.0
e 223 59 91.0
e 223 173 37.0
e 223 29 75.0
e 225 207 6.0
e 227 231 10.0
e 227 279 8.0
e 228 305 1.0
e 229 5 21.0
e 229 212 70.0
e 229 82 29.0
e 229 13 64.0
e 229 67 50.0
e 229 236 6.0
e 229 63 14.0
e 229 302 81.0
e 229 128 97.0
e 229 300 41.0
e 229 89 99.0
e 229 12 82.0
e 229 4 15.0
e 229 157 48.0
e 229 65 69.0
e 229 240 2.0
e 229 142 74.0
e 230 293 1.0
e 232 212 83.0
e 232 159 98.0
e 232 109 22.0
e 232 93 45.0
e 232 25 27.0
e 232 265 41.0
e 232 65 58.0
e 232 48 17.0
e 232 150 46.0
e 232 231 4.0
e 232 33 27.0
e 232 187 58.0
e 232 222 88.0
e 232 155 44.0
e 232 28 81.0
e 232 227 89.0
e 232 66 41.0
e 240 223 14.0
e 240 51 4.0
e 244 316 18.0
e 244 197 4.0
e 245 85 1.0
e 246 151 1.0
e 246 221 1.0
e 247 267 97.0
e 247 15 95.0
e 247 49 50.0
e 247 83 74.0
e 247 20 38.0
e 247 250 39.0
e 247 59 34.0
e 247 137 99.0
e 247 285 84.0
e 247 0 86.0
e 247 211 60.0
e 247 159 98.0
e 247 50 63.0
e 247 314 87.0
e 247 164 18.0
e 249 15 37.0
e 249 33 16.0
e 249 311 87.0
e 249 213 21.0
e 249 173 22.0
e 249 160 3.0
e 249 21 5.0
e 262 35 3.0
e 262 190 5.0
e 264 200 5.0
e 264 22 9.0
e 264 1 3.0
e 266 93 1.0
e 267 268 13.0
e 267 276 24.0
e 267 109 13.0
e 267 80 24.0
e 268 4 48.0
e 270 221 13.0
e 270 136 27.0
e 270 280 14.0
e 270 271 9.0
e 272 155 22.0
e 272 220 1.0
e 272 281 3.0
e 275 102 10.0
e 280 294 11.0
e 280 115 11.0
e 284 0 1.0
e 286 10 1.0
e 287 302 77.0
e 287 294 60.0
e 287 152 27.0
e 287 290 89.0
e 287 7 52.0
e 287 200 19.0
e 287 315 31.0
e 287 87 95.0
e 287 189 67.0
e 287 235 77.0
e 287 309 97.0
e 287 249 77.0
e 287 175 32.0
e 287 136 76.0
e 287 36 35.0
e 287 203 65.0
e 287 93 56.0
e 291 48 1.0
e 292 172 5.0
e 292 103 15.0
e 295 226 2.0
e 295 34 5.0
e 297 229 57.0
e 297 277 5.0
e 298 310 9.0
e 298 95 6.0
e 298 302 3.0
e 298 66 24.0
e 304 73 22.0
e 307 266 5.0
e 309 110 19.0
e 309 253 1.0
e 309 288 5.0
e 311 222 69.0
e 311 229 55.0
e 311 282 92.0
e 311 150 55.0
e 311 61 37.0
e 311 63 81.0
e 311 77 92.0
e 311 306 93.0
e 311 96 19.0
e 311 112 18.0
e 311 7 56.0
e 311 70 35.0
e 311 302 15.0
e 312 240 8.0
e 313 270 4.0
e 314 165 84.0
e 314 266 39.0
e 314 185 40.0
e 314 97 82.0
e 314 22 53.0
e 314 79 50.0
e 314 252 54.0
e 314 91 48.0
e 314 118 72.0
e 314 280 73.0
e 314 84 51.0
e 314 155 7.0
e 314 7 36.0
e 314 270 72.0
e 314 128 65.0
e 314 184 100.0
e 319 22 1.0
